pyomo/data/cute/lakes.ampl.col
v1_2
w1_2
v1_3
w1_3
v1_4
v2_2
w2_2
v2_3
w2_3
v2_4
v3_2
w3_2
v3_3
w3_3
v3_4
v4_2
w4_2
v4_3
w4_3
v4_4
v5_2
w5_2
v5_3
w5_3
v5_4
v6_2
w6_2
v6_3
w6_3
v6_4
t1_1
o1_1
t1_2
o1_2
t1_3
o1_3
t1_4
o1_4
t1_5
o1_5
t2_1
o2_1
t2_2
o2_2
t2_3
o2_3
t2_4
o2_4
t2_5
o2_5
t3_1
o3_1
t3_2
o3_2
t3_3
o3_3
t3_4
o3_4
t3_5
o3_5
t4_1
o4_1
t4_2
o4_2
t4_3
o4_3
t4_4
o4_4
t4_5
o4_5
t5_1
o5_1
t5_2
o5_2
t5_3
o5_3
t5_4
o5_4
t5_5
o5_5
t6_1
o6_1
t6_2
o6_2
t6_3
o6_3
t6_4
o6_4
t6_5
o6_5
